c colouring generated by benchmark framework
p edge 74 301
v 1 1
v 2 8
v 3 2
v 4 5
v 5 6
v 6 10
v 7 7
v 8 6
v 9 7
v 10 4
v 11 4
v 12 1
v 13 2
v 14 5
v 15 6
v 16 0
v 17 0
v 18 1
v 19 6
v 20 1
v 21 5
v 22 4
v 23 8
v 24 0
v 25 5
v 26 0
v 27 4
v 28 6
v 29 8
v 30 1
v 31 2
v 32 8
v 33 4
v 34 4
v 35 5
v 36 6
v 37 7
v 38 3
v 39 3
v 40 7
v 41 3
v 42 6
v 43 6
v 44 0
v 45 0
v 46 1
v 47 10
v 48 8
v 49 10
v 50 3
v 51 2
v 52 4
v 53 0
v 54 6
v 55 9
v 56 1
v 57 7
v 58 9
v 59 0
v 60 0
v 61 2
v 62 0
v 63 10
v 64 2
v 65 5
v 66 0
v 67 4
v 68 8
v 69 0
v 70 0
v 71 4
v 72 0
v 73 2
v 74 0
